c preprocessed version of oow-trad, 21 vertices, 50 edges
p td 21 50
0 1
0 13
12 0
8 0
9 0
1 2
1 3
8 1
9 1
3 2
6 2
3 4
7 3
9 3
10 3
4 5
6 4
10 4
6 5
11 5
15 5
6 7
8 7
9 7
8 9
10 8
9 10
11 12
11 17
15 11
12 13
17 12
14 13
15 14
14 16
15 16
16 17
18 2
18 6
18 19
18 17
18 16
19 13
19 14
20 18
20 19
20 0
20 13
20 12
20 8
